code/experiments/eil51_sub/eil51_n09.tsp
NAME : eil51_n9
COMMENT : 9-city problem (Christofides/Eilon)
TYPE : TSP
DIMENSION : 9
EDGE_WEIGHT_TYPE : CEIL_2D
NODE_COORD_SECTION
1 17 63
2 31 62
3 36 16
4 52 41
5 27 23
6 62 63
7 32 22
8 5 6
9 56 37
EOF
