code/experiments/eil51_sub/eil51_n09.opt.tour
9
0 7 4 6 2 8 3 5 1 
